************************************************************************
file with basedata            : n/a
initial value random generator: n/a
************************************************************************
projects                      :  1
jobs (incl. supersource/sink ):  122
horizon                       :  679
RESOURCES
  - renewable                 :  4   R
  - nonrenewable              :  0   N
  - doubly constrained        :  0   D
************************************************************************
PROJECT INFORMATION:
pronr.  #jobs rel.date duedate tardcost  MPM-Time
    1    120      0       84       81       84
************************************************************************
PRECEDENCE RELATIONS:
jobnr.    #modes  #successors   successors
   1        1          3           2   3   4
   2        1          3           5   6   8
   3        1          3           7  13  28
   4        1          3          11  42  81
   5        1          3          14  19  70
   6        1          2          26  88
   7        1          3           9  12  18
   8        1          3          10  36  41
   9        1          3          15  21  34
  10        1          1          74
  11        1          3          35  56  68
  12        1          3          16  20  24
  13        1          1          32
  14        1          1          76
  15        1          2          72  97
  16        1          3          17  33  37
  17        1          3          23  30  48
  18        1          2          44 108
  19        1          2          33 104
  20        1          1          22
  21        1          2          29  73
  22        1          3          39  43  53
  23        1          1          68
  24        1          3          25  27  49
  25        1          2          46  69
  26        1          3          52  64 114
  27        1          1          62
  28        1          3          45  59 114
  29        1          3          38  47  50
  30        1          1          31
  31        1          1          79
  32        1          1          90
  33        1          2          58  60
  34        1          2          39 105
  35        1          3          55  63  84
  36        1          1          61
  37        1          1          75
  38        1          1          40
  39        1          2          78  86
  40        1          1          69
  41        1          2          43  85
  42        1          1          59
  43        1          2          46  51
  44        1          2          78  98
  45        1          1          66
  46        1          1         102
  47        1          1          82
  48        1          1         119
  49        1          1          67
  50        1          1          60
  51        1          3          71  83 117
  52        1          1          59
  53        1          1          54
  54        1          1          57
  55        1          1         112
  56        1          1         117
  57        1          1          94
  58        1          1          73
  59        1          1         115
  60        1          1          80
  61        1          2          65  93
  62        1          1         110
  63        1          1          82
  64        1          1          87
  65        1          1          89
  66        1          1          77
  67        1          1         112
  68        1          1          92
  69        1          1          76
  70        1          2          78  95
  71        1          2         103 113
  72        1          2          93 106
  73        1          1          75
  74        1          2         107 118
  75        1          1         111
  76        1          2          91 120
  77        1          1          80
  78        1          2          85  99
  79        1          1          92
  80        1          2          86  94
  81        1          1          88
  82        1          1         109
  83        1          1         105
  84        1          1          96
  85        1          1         106
  86        1          1          90
  87        1          1          89
  88        1          1         103
  89        1          3         100 102 118
  90        1          1         101
  91        1          1          95
  92        1          1          93
  93        1          1         114
  94        1          1         121
  95        1          1         113
  96        1          1          97
  97        1          1         101
  98        1          1         109
  99        1          1         117
 100        1          1         103
 101        1          1         111
 102        1          1         108
 103        1          1         106
 104        1          1         110
 105        1          1         111
 106        1          2         107 115
 107        1          1         109
 108        1          1         121
 109        1          1         112
 110        1          2         113 121
 111        1          1         116
 112        1          1         116
 113        1          1         115
 114        1          1         118
 115        1          1         119
 116        1          1         119
 117        1          1         120
 118        1          1         120
 119        1          1         122
 120        1          1         122
 121        1          1         122
 122        1          0        
************************************************************************
REQUESTS/DURATIONS:
jobnr. mode duration  R 1  R 2  R 3  R 4
------------------------------------------------------------------------
  1      1     0    
  2      1     5       4   7   4   7   7
                       3   5   3   5   5
                       3   5   3   5   5
                       4   8   4   8   8
  3      1     6      10  10  10  10   5  10
                      10  10  10  10   5  10
                       1   1   1   1   1   1
                       4   4   4   4   2   4
  4      1     4       5   5   5   5
                       8   8   8   8
                       4   4   4   4
                       3   3   3   3
  5      1     9       4   4   4   4   4   4   4   4   4
                       5   5   5   5   5   5   5   5   5
                       3   3   3   3   3   3   3   3   3
                       1   1   1   1   1   1   1   1   1
  6      1    10       5   9   9   9   5   9   5   9   9   9
                       1   2   2   2   1   2   1   2   2   2
                       3   5   5   5   3   5   3   5   5   5
                       2   3   3   3   2   3   2   3   3   3
  7      1     6       1   1   1   1   1   1
                       3   3   3   3   3   3
                       6   6   6   6   6   6
                       3   3   3   3   3   3
  8      1     9       2   2   2   2   1   2   2   2   2
                       1   1   1   1   1   1   1   1   1
                       2   2   2   2   1   2   2   2   2
                       3   3   3   3   2   3   3   3   3
  9      1     3       1   1   1
                      10  10   5
                       1   1   1
                       6   6   3
 10      1     8       6   6   6   6   6   6   3   3
                       6   6   6   6   6   6   3   3
                       7   7   7   7   7   7   4   4
                       3   3   3   3   3   3   2   2
 11      1    10       3   3   3   3   2   3   2   3   3   3
                       5   5   5   5   3   5   3   5   5   5
                       8   8   8   8   4   8   4   8   8   8
                       2   2   2   2   1   2   1   2   2   2
 12      1     3       5  10   5
                       4   7   4
                       1   1   1
                       4   7   4
 13      1    10       4   4   4   4   4   4   2   4   2   4
                       1   1   1   1   1   1   1   1   1   1
                      10  10  10  10  10  10   5  10   5  10
                       8   8   8   8   8   8   4   8   4   8
 14      1     2      10  10
                       1   1
                       5   5
                      10  10
 15      1    10       5   3   3   5   3   5   5   5   5   5
                       1   1   1   1   1   1   1   1   1   1
                       8   4   4   8   4   8   8   8   8   8
                       2   1   1   2   1   2   2   2   2   2
 16      1     9       5   5   5   3   5   3   3   5   5
                       3   3   3   2   3   2   2   3   3
                       5   5   5   3   5   3   3   5   5
                       6   6   6   3   6   3   3   6   6
 17      1     6      10  10  10   5  10  10
                       3   3   3   2   3   3
                       9   9   9   5   9   9
                       5   5   5   3   5   5
 18      1     8       8   8   8   8   8   8   8   8
                       2   2   2   2   2   2   2   2
                       5   5   5   5   5   5   5   5
                      10  10  10  10  10  10  10  10
 19      1     6       5  10  10  10  10  10
                       3   5   5   5   5   5
                       3   6   6   6   6   6
                       2   4   4   4   4   4
 20      1     2      10  10
                       7   7
                       8   8
                       2   2
 21      1     7       5  10  10  10   5  10  10
                       1   2   2   2   1   2   2
                       4   7   7   7   4   7   7
                       3   6   6   6   3   6   6
 22      1     8      10   5   5   5  10  10  10  10
                       2   1   1   1   2   2   2   2
                       4   2   2   2   4   4   4   4
                      10   5   5   5  10  10  10  10
 23      1    10       4   4   2   4   4   4   4   2   2   2
                       4   4   2   4   4   4   4   2   2   2
                       6   6   3   6   6   6   6   3   3   3
                       5   5   3   5   5   5   5   3   3   3
 24      1     8       2   1   2   2   1   2   1   2
                       5   3   5   5   3   5   3   5
                       4   2   4   4   2   4   2   4
                       4   2   4   4   2   4   2   4
 25      1     3       9   9   5
                       2   2   1
                       6   6   3
                       8   8   4
 26      1     4       5   9   9   9
                       2   3   3   3
                       4   8   8   8
                       3   6   6   6
 27      1     9       9   9   9   9   9   9   9   9   5
                       4   4   4   4   4   4   4   4   2
                       8   8   8   8   8   8   8   8   4
                       4   4   4   4   4   4   4   4   2
 28      1     9       2   3   3   2   3   2   3   3   3
                       5   9   9   5   9   5   9   9   9
                       3   6   6   3   6   3   6   6   6
                       1   2   2   1   2   1   2   2   2
 29      1     2       9   9
                       8   8
                       3   3
                       6   6
 30      1     9       4   7   7   7   7   7   7   4   4
                       4   8   8   8   8   8   8   4   4
                       1   2   2   2   2   2   2   1   1
                       5  10  10  10  10  10  10   5   5
 31      1     5       1   1   1   1   1
                       4   4   4   4   4
                       1   1   1   1   1
                       6   6   6   6   6
 32      1     3       2   2   2
                       8   8   8
                      10  10  10
                       1   1   1
 33      1     8       5   9   9   9   9   9   9   9
                       3   5   5   5   5   5   5   5
                       4   8   8   8   8   8   8   8
                       4   7   7   7   7   7   7   7
 34      1     3       2   2   2
                       8   8   8
                       6   6   6
                       9   9   9
 35      1     9       2   1   1   2   2   2   2   1   2
                       6   3   3   6   6   6   6   3   6
                       6   3   3   6   6   6   6   3   6
                       8   4   4   8   8   8   8   4   8
 36      1    10       8   8   8   8   8   8   4   8   8   8
                       6   6   6   6   6   6   3   6   6   6
                       7   7   7   7   7   7   4   7   7   7
                      10  10  10  10  10  10   5  10  10  10
 37      1     2       3   3
                       6   6
                       5   5
                       1   1
 38      1     5       1   1   1   1   1
                       5   9   9   9   9
                       3   6   6   6   6
                       2   4   4   4   4
 39      1     4       3   2   2   3
                       7   4   4   7
                       3   2   2   3
                       2   1   1   2
 40      1     5       4   2   4   4   4
                       1   1   1   1   1
                       3   2   3   3   3
                       6   3   6   6   6
 41      1     7       2   4   4   4   4   2   4
                       4   7   7   7   7   4   7
                       4   8   8   8   8   4   8
                       1   1   1   1   1   1   1
 42      1     4       9   9   9   9
                       8   8   8   8
                       9   9   9   9
                      10  10  10  10
 43      1     6       6   6   6   6   3   6
                      10  10  10  10   5  10
                       2   2   2   2   1   2
                       5   5   5   5   3   5
 44      1    10       7   7   7   7   7   4   7   7   7   7
                      10  10  10  10  10   5  10  10  10  10
                       3   3   3   3   3   2   3   3   3   3
                       5   5   5   5   5   3   5   5   5   5
 45      1     1       3
                       1
                       3
                       1
 46      1     3       2   2   2
                      10  10  10
                       2   2   2
                       8   8   8
 47      1     7       9   9   9   9   9   9   9
                       2   2   2   2   2   2   2
                       6   6   6   6   6   6   6
                      10  10  10  10  10  10  10
 48      1     3      10  10   5
                       4   4   2
                      10  10   5
                       8   8   4
 49      1     4       2   2   1   2
                       5   5   3   5
                       3   3   2   3
                      10  10   5  10
 50      1     9       2   2   2   2   1   2   1   2   2
                       2   2   2   2   1   2   1   2   2
                       5   5   5   5   3   5   3   5   5
                       6   6   6   6   3   6   3   6   6
 51      1     3      10  10  10
                       5   5   5
                       4   4   4
                       1   1   1
 52      1     4       9   9   9   5
                       2   2   2   1
                      10  10  10   5
                       5   5   5   3
 53      1     1       7
                       8
                       2
                       7
 54      1    10      10  10  10  10  10  10  10  10  10   5
                       4   4   4   4   4   4   4   4   4   2
                      10  10  10  10  10  10  10  10  10   5
                      10  10  10  10  10  10  10  10  10   5
 55      1     6       7   7   7   7   7   7
                      10  10  10  10  10  10
                      10  10  10  10  10  10
                       2   2   2   2   2   2
 56      1     5       2   3   3   3   3
                       5  10  10  10  10
                       3   6   6   6   6
                       4   7   7   7   7
 57      1     4       1   1   1   1
                       9   9   9   5
                       2   2   2   1
                       7   7   7   4
 58      1     8       1   1   1   1   1   1   1   1
                      10   5  10  10  10  10  10  10
                       8   4   8   8   8   8   8   8
                       9   5   9   9   9   9   9   9
 59      1     2       6   6
                       9   9
                       1   1
                       2   2
 60      1     3       4   4   4
                       8   8   8
                       4   4   4
                       6   6   6
 61      1     4       8   8   8   8
                       4   4   4   4
                       6   6   6   6
                       9   9   9   9
 62      1     7       1   1   1   1   1   1   1
                       3   3   3   3   3   3   3
                       6   6   6   6   6   6   6
                       2   2   2   2   2   2   2
 63      1    10      10  10   5  10  10  10   5  10  10  10
                       8   8   4   8   8   8   4   8   8   8
                       3   3   2   3   3   3   2   3   3   3
                       9   9   5   9   9   9   5   9   9   9
 64      1     9      10  10   5  10  10  10  10  10  10
                       7   7   4   7   7   7   7   7   7
                       9   9   5   9   9   9   9   9   9
                       9   9   5   9   9   9   9   9   9
 65      1     5       5   3   3   5   5
                       9   5   5   9   9
                       9   5   5   9   9
                      10   5   5  10  10
 66      1     9       2   2   2   1   2   2   2   2   2
                       7   7   7   4   7   7   7   7   7
                       5   5   5   3   5   5   5   5   5
                       4   4   4   2   4   4   4   4   4
 67      1     8      10  10  10  10  10  10   5   5
                       3   3   3   3   3   3   2   2
                       7   7   7   7   7   7   4   4
                       7   7   7   7   7   7   4   4
 68      1     5       8   4   8   8   8
                       4   2   4   4   4
                       6   3   6   6   6
                       9   5   9   9   9
 69      1     4       1   1   1   1
                       4   8   8   8
                       3   5   5   5
                       4   7   7   7
 70      1     6       3   3   3   3   3   3
                       1   1   1   1   1   1
                       6   6   6   6   6   6
                       7   7   7   7   7   7
 71      1     4       6   6   6   6
                       5   5   5   5
                       5   5   5   5
                       4   4   4   4
 72      1     5       8   8   8   8   8
                       5   5   5   5   5
                       9   9   9   9   9
                       2   2   2   2   2
 73      1     8       9   9   5   9   9   9   9   9
                       1   1   1   1   1   1   1   1
                       8   8   4   8   8   8   8   8
                       7   7   4   7   7   7   7   7
 74      1     4      10   5  10  10
                       1   1   1   1
                       1   1   1   1
                       9   5   9   9
 75      1     7       6   6   6   6   6   6   6
                      10  10  10  10  10  10  10
                       2   2   2   2   2   2   2
                       8   8   8   8   8   8   8
 76      1     3      10  10  10
                       4   4   4
                       4   4   4
                       1   1   1
 77      1     8       8   8   8   8   8   8   4   8
                       7   7   7   7   7   7   4   7
                       3   3   3   3   3   3   2   3
                       2   2   2   2   2   2   1   2
 78      1     1       4
                       4
                       2
                       3
 79      1     8       9   9   9   9   9   9   9   9
                       3   3   3   3   3   3   3   3
                       2   2   2   2   2   2   2   2
                       8   8   8   8   8   8   8   8
 80      1    10       4   4   4   4   4   4   4   4   2   2
                       6   6   6   6   6   6   6   6   3   3
                       1   1   1   1   1   1   1   1   1   1
                       2   2   2   2   2   2   2   2   1   1
 81      1     1       1
                       3
                       3
                       1
 82      1     8       9   5   9   9   5   9   9   9
                       8   4   8   8   4   8   8   8
                       8   4   8   8   4   8   8   8
                       3   2   3   3   2   3   3   3
 83      1     6       3   3   2   3   3   3
                      10  10   5  10  10  10
                       9   9   5   9   9   9
                       3   3   2   3   3   3
 84      1     3       5   5   5
                       9   9   9
                       1   1   1
                      10  10  10
 85      1     6       5   5   3   5   5   5
                       3   3   2   3   3   3
                       9   9   5   9   9   9
                       1   1   1   1   1   1
 86      1     2       6   6
                       7   7
                       4   4
                       9   9
 87      1     3       2   2   2
                       2   2   2
                      10  10  10
                       1   1   1
 88      1     7       9   9   5   9   9   9   9
                       3   3   2   3   3   3   3
                       1   1   1   1   1   1   1
                       3   3   2   3   3   3   3
 89      1     1       4
                       4
                       1
                       1
 90      1     9       4   8   8   8   8   8   4   8   8
                       2   4   4   4   4   4   2   4   4
                       2   4   4   4   4   4   2   4   4
                       5   9   9   9   9   9   5   9   9
 91      1     8       5   5   5   5   5   5   5   5
                       7   7   7   7   7   7   7   7
                      10  10  10  10  10  10  10  10
                      10  10  10  10  10  10  10  10
 92      1     2       2   1
                       1   1
                       8   4
                       3   2
 93      1     6       3   3   3   3   3   2
                       5   5   5   5   5   3
                       9   9   9   9   9   5
                      10  10  10  10  10   5
 94      1     2       2   2
                       9   9
                       6   6
                       7   7
 95      1     2       5   5
                       8   8
                       1   1
                       3   3
 96      1     5       5  10  10  10  10
                       1   1   1   1   1
                       2   3   3   3   3
                       3   6   6   6   6
 97      1     2       2   4
                       2   3
                       5  10
                       4   8
 98      1     6       2   2   2   2   2   1
                       5   5   5   5   5   3
                       4   4   4   4   4   2
                       9   9   9   9   9   5
 99      1     4       2   4   4   4
                       2   4   4   4
                       1   2   2   2
                       2   4   4   4
100      1     9       4   4   2   4   4   4   4   4   4
                       2   2   1   2   2   2   2   2   2
                       4   4   2   4   4   4   4   4   4
                      10  10   5  10  10  10  10  10  10
101      1     1       3
                       2
                       8
                       5
102      1     6       1   1   1   1   1   1
                       7   7   7   4   7   7
                       1   1   1   1   1   1
                       6   6   6   3   6   6
103      1     7       1   1   1   1   1   1   1
                       2   1   1   2   2   2   2
                       7   4   4   7   7   7   7
                      10   5   5  10  10  10  10
104      1     9      10  10  10   5   5  10  10   5  10
                      10  10  10   5   5  10  10   5  10
                       8   8   8   4   4   8   8   4   8
                      10  10  10   5   5  10  10   5  10
105      1    10       5   5   5   5   5   3   5   5   5   5
                      10  10  10  10  10   5  10  10  10  10
                       8   8   8   8   8   4   8   8   8   8
                       3   3   3   3   3   2   3   3   3   3
106      1     2      10  10
                       5   5
                       6   6
                       1   1
107      1     4       5   9   5   9
                       1   2   1   2
                       3   5   3   5
                       2   4   2   4
108      1     1       5
                       6
                       3
                       8
109      1     8       8   8   8   8   8   8   8   8
                       6   6   6   6   6   6   6   6
                      10  10  10  10  10  10  10  10
                       1   1   1   1   1   1   1   1
110      1     3       6   3   6
                       6   3   6
                       8   4   8
                       9   5   9
111      1     3       5   5   3
                       5   5   3
                       2   2   1
                       4   4   2
112      1     7       5  10  10  10   5  10  10
                       5  10  10  10   5  10  10
                       3   5   5   5   3   5   5
                       4   8   8   8   4   8   8
113      1     4       3   3   3   3
                       1   1   1   1
                       5   5   5   5
                       5   5   5   5
114      1     4       6   6   3   6
                       5   5   3   5
                       8   8   4   8
                       4   4   2   4
115      1     3      10  10  10
                       6   6   6
                       2   2   2
                       5   5   5
116      1     9       9   9   9   9   9   9   9   5   9
                       7   7   7   7   7   7   7   4   7
                       2   2   2   2   2   2   2   1   2
                       1   1   1   1   1   1   1   1   1
117      1     8       8   8   8   8   8   4   8   8
                       4   4   4   4   4   2   4   4
                       1   1   1   1   1   1   1   1
                       2   2   2   2   2   1   2   2
118      1     1       4
                       3
                       4
                       5
119      1     4       4   4   4   2
                       1   1   1   1
                       1   1   1   1
                       4   4   4   2
120      1    10       8   8   8   8   8   8   8   4   8   4
                       5   5   5   5   5   5   5   3   5   3
                       1   1   1   1   1   1   1   1   1   1
                       8   8   8   8   8   8   8   4   8   4
121      1     9       9   5   9   9   9   9   9   9   9
                      10   5  10  10  10  10  10  10  10
                       3   2   3   3   3   3   3   3   3
                       5   3   5   5   5   5   5   5   5
122      1     0    
************************************************************************
RESOURCEAVAILABILITIES:
  R 1  R 2  R 3  R 4

  27  27  27  53  27  53  27  53  27  53  27  53  53  53  53  53  53  53  53  53  53  53  53  53  53  53  27  53  53  53  53  53  53  53  27  27  27  53  53  53  53  53  27  27  53  53  53  53  53  53  27  53  27  53  53  53  53  53  53  53  53  53  27  27  53  53  53  53  53  53  53  53  53  53  53  27  53  53  27  53  53  53  27  53  53  53  53  27  53  53  27  27  53  53  53  53  53  53  53  53  27  53  53  53  53  53  53  53  27  53  53  27  53  53  27  53  53  53  53  27  27  53  27  53  53  53  27  27  53  53  27  53  53  53  53  27  53  53  27  53  27  27  27  53  53  53  27  27  53  53  27  53  53  53  53  53  53  53  53  27  53  53  53  53  53  53  53  53  53  27  53  53  53  53  53  53  53  27  53  53  53  53  53  53  27  53  53  27  53  53  53  53  27  53  53  53  27  53  53  27  53  27  53  53  27  27  53  53  53  53  53  53  53  27  53  53  27  53  53  53  53  53  53  53  53  27  53  53  53  53  53  53  53  53  53  53  53  27  53  53  53  27  27  53  53  53  27  53  27  53  53  53  53  53  53  53  53  53  53  53  53  53  53  53  53  53  53  53  53  53  27  53  53  53  53  53  53  53  53  27  53  53  27  53  53  53  53  53  53  53  53  27  27  53  53  53  53  53  53  27  53  53  53  53  27  27  53  53  53  27  27  27  53  53  27  27  53  53  53  27  53  27  53  27  53  53  53  53  53  53  53  27  53  53  53  53  27  27  27  53  53  53  53  53  53  27  53  53  27  53  53  53  53  27  27  27  53  27  53  53  53  53  53  53  53  53  53  27  53  27  53  53  53  53  53  27  53  53  53  53  53  53  53  53  53  53  53  53  27  53  53  53  53  53  27  53  27  27  53  53  53  53  53  27  53  53  53  53  53  53  27  53  53  53  53  27  53  53  53  53  53  53  53  27  53  53  53  53  53  27  27  53  53  53  53  53  53  53  27  53  27  53  53  53  53  53  53  53  27  53  53  53  27  53  27  53  53  53  27  53  27  27  53  53  53  27  27  27  53  53  27  53  53  53  27  53  27  53  53  53  53  53  53  53  53  53  53  27  27  53  53  27  53  53  53  53  53  53  53  27  27  53  53  53  53  27  27  53  53  53  53  53  53  27  53  53  53  53  53  53  53  53  53  27  53  53  53  27  53  53  53  53  53  27  53  53  53  53  27  53  53  53  53  27  53  53  53  53  53  53  53  53  27  53  53  53  53  27  53  27  53  53  53  27  27  53  53  53  53  53  53  53  53  53  27  53  53  53  53  27  53  53  53  53  53  53  53  53  27  53  53  27  53  53  53  53  53  53  53  53  53  53  53  53  53  53  53  27  53  53  53  53  53  53  53  53  53  27  53  53  53  53  53  27  27  27  53  53  53  27  53  27  53  27  53  53  53  27  53  53  53  53  53  53  53  53  53  53  27  27  27  27  53  27  53  53  27  53  53  53  53  53  53  53  27  53  27  27  53  53  27  27  53  53  53  53  53  53  53

  24  24  24  47  24  47  24  47  24  47  24  47  47  47  47  47  47  47  47  47  47  47  47  47  47  47  24  47  47  47  47  47  47  47  24  24  24  47  47  47  47  47  24  24  47  47  47  47  47  47  24  47  24  47  47  47  47  47  47  47  47  47  24  24  47  47  47  47  47  47  47  47  47  47  47  24  47  47  24  47  47  47  24  47  47  47  47  24  47  47  24  24  47  47  47  47  47  47  47  47  24  47  47  47  47  47  47  47  24  47  47  24  47  47  24  47  47  47  47  24  24  47  24  47  47  47  24  24  47  47  24  47  47  47  47  24  47  47  24  47  24  24  24  47  47  47  24  24  47  47  24  47  47  47  47  47  47  47  47  24  47  47  47  47  47  47  47  47  47  24  47  47  47  47  47  47  47  24  47  47  47  47  47  47  24  47  47  24  47  47  47  47  24  47  47  47  24  47  47  24  47  24  47  47  24  24  47  47  47  47  47  47  47  24  47  47  24  47  47  47  47  47  47  47  47  24  47  47  47  47  47  47  47  47  47  47  47  24  47  47  47  24  24  47  47  47  24  47  24  47  47  47  47  47  47  47  47  47  47  47  47  47  47  47  47  47  47  47  47  47  24  47  47  47  47  47  47  47  47  24  47  47  24  47  47  47  47  47  47  47  47  24  24  47  47  47  47  47  47  24  47  47  47  47  24  24  47  47  47  24  24  24  47  47  24  24  47  47  47  24  47  24  47  24  47  47  47  47  47  47  47  24  47  47  47  47  24  24  24  47  47  47  47  47  47  24  47  47  24  47  47  47  47  24  24  24  47  24  47  47  47  47  47  47  47  47  47  24  47  24  47  47  47  47  47  24  47  47  47  47  47  47  47  47  47  47  47  47  24  47  47  47  47  47  24  47  24  24  47  47  47  47  47  24  47  47  47  47  47  47  24  47  47  47  47  24  47  47  47  47  47  47  47  24  47  47  47  47  47  24  24  47  47  47  47  47  47  47  24  47  24  47  47  47  47  47  47  47  24  47  47  47  24  47  24  47  47  47  24  47  24  24  47  47  47  24  24  24  47  47  24  47  47  47  24  47  24  47  47  47  47  47  47  47  47  47  47  24  24  47  47  24  47  47  47  47  47  47  47  24  24  47  47  47  47  24  24  47  47  47  47  47  47  24  47  47  47  47  47  47  47  47  47  24  47  47  47  24  47  47  47  47  47  24  47  47  47  47  24  47  47  47  47  24  47  47  47  47  47  47  47  47  24  47  47  47  47  24  47  24  47  47  47  24  24  47  47  47  47  47  47  47  47  47  24  47  47  47  47  24  47  47  47  47  47  47  47  47  24  47  47  24  47  47  47  47  47  47  47  47  47  47  47  47  47  47  47  24  47  47  47  47  47  47  47  47  47  24  47  47  47  47  47  24  24  24  47  47  47  24  47  24  47  24  47  47  47  24  47  47  47  47  47  47  47  47  47  47  24  24  24  24  47  24  47  47  24  47  47  47  47  47  47  47  24  47  24  24  47  47  24  24  47  47  47  47  47  47  47

  22  22  22  44  22  44  22  44  22  44  22  44  44  44  44  44  44  44  44  44  44  44  44  44  44  44  22  44  44  44  44  44  44  44  22  22  22  44  44  44  44  44  22  22  44  44  44  44  44  44  22  44  22  44  44  44  44  44  44  44  44  44  22  22  44  44  44  44  44  44  44  44  44  44  44  22  44  44  22  44  44  44  22  44  44  44  44  22  44  44  22  22  44  44  44  44  44  44  44  44  22  44  44  44  44  44  44  44  22  44  44  22  44  44  22  44  44  44  44  22  22  44  22  44  44  44  22  22  44  44  22  44  44  44  44  22  44  44  22  44  22  22  22  44  44  44  22  22  44  44  22  44  44  44  44  44  44  44  44  22  44  44  44  44  44  44  44  44  44  22  44  44  44  44  44  44  44  22  44  44  44  44  44  44  22  44  44  22  44  44  44  44  22  44  44  44  22  44  44  22  44  22  44  44  22  22  44  44  44  44  44  44  44  22  44  44  22  44  44  44  44  44  44  44  44  22  44  44  44  44  44  44  44  44  44  44  44  22  44  44  44  22  22  44  44  44  22  44  22  44  44  44  44  44  44  44  44  44  44  44  44  44  44  44  44  44  44  44  44  44  22  44  44  44  44  44  44  44  44  22  44  44  22  44  44  44  44  44  44  44  44  22  22  44  44  44  44  44  44  22  44  44  44  44  22  22  44  44  44  22  22  22  44  44  22  22  44  44  44  22  44  22  44  22  44  44  44  44  44  44  44  22  44  44  44  44  22  22  22  44  44  44  44  44  44  22  44  44  22  44  44  44  44  22  22  22  44  22  44  44  44  44  44  44  44  44  44  22  44  22  44  44  44  44  44  22  44  44  44  44  44  44  44  44  44  44  44  44  22  44  44  44  44  44  22  44  22  22  44  44  44  44  44  22  44  44  44  44  44  44  22  44  44  44  44  22  44  44  44  44  44  44  44  22  44  44  44  44  44  22  22  44  44  44  44  44  44  44  22  44  22  44  44  44  44  44  44  44  22  44  44  44  22  44  22  44  44  44  22  44  22  22  44  44  44  22  22  22  44  44  22  44  44  44  22  44  22  44  44  44  44  44  44  44  44  44  44  22  22  44  44  22  44  44  44  44  44  44  44  22  22  44  44  44  44  22  22  44  44  44  44  44  44  22  44  44  44  44  44  44  44  44  44  22  44  44  44  22  44  44  44  44  44  22  44  44  44  44  22  44  44  44  44  22  44  44  44  44  44  44  44  44  22  44  44  44  44  22  44  22  44  44  44  22  22  44  44  44  44  44  44  44  44  44  22  44  44  44  44  22  44  44  44  44  44  44  44  44  22  44  44  22  44  44  44  44  44  44  44  44  44  44  44  44  44  44  44  22  44  44  44  44  44  44  44  44  44  22  44  44  44  44  44  22  22  22  44  44  44  22  44  22  44  22  44  44  44  22  44  44  44  44  44  44  44  44  44  44  22  22  22  22  44  22  44  44  22  44  44  44  44  44  44  44  22  44  22  22  44  44  22  22  44  44  44  44  44  44  44

  24  24  24  48  24  48  24  48  24  48  24  48  48  48  48  48  48  48  48  48  48  48  48  48  48  48  24  48  48  48  48  48  48  48  24  24  24  48  48  48  48  48  24  24  48  48  48  48  48  48  24  48  24  48  48  48  48  48  48  48  48  48  24  24  48  48  48  48  48  48  48  48  48  48  48  24  48  48  24  48  48  48  24  48  48  48  48  24  48  48  24  24  48  48  48  48  48  48  48  48  24  48  48  48  48  48  48  48  24  48  48  24  48  48  24  48  48  48  48  24  24  48  24  48  48  48  24  24  48  48  24  48  48  48  48  24  48  48  24  48  24  24  24  48  48  48  24  24  48  48  24  48  48  48  48  48  48  48  48  24  48  48  48  48  48  48  48  48  48  24  48  48  48  48  48  48  48  24  48  48  48  48  48  48  24  48  48  24  48  48  48  48  24  48  48  48  24  48  48  24  48  24  48  48  24  24  48  48  48  48  48  48  48  24  48  48  24  48  48  48  48  48  48  48  48  24  48  48  48  48  48  48  48  48  48  48  48  24  48  48  48  24  24  48  48  48  24  48  24  48  48  48  48  48  48  48  48  48  48  48  48  48  48  48  48  48  48  48  48  48  24  48  48  48  48  48  48  48  48  24  48  48  24  48  48  48  48  48  48  48  48  24  24  48  48  48  48  48  48  24  48  48  48  48  24  24  48  48  48  24  24  24  48  48  24  24  48  48  48  24  48  24  48  24  48  48  48  48  48  48  48  24  48  48  48  48  24  24  24  48  48  48  48  48  48  24  48  48  24  48  48  48  48  24  24  24  48  24  48  48  48  48  48  48  48  48  48  24  48  24  48  48  48  48  48  24  48  48  48  48  48  48  48  48  48  48  48  48  24  48  48  48  48  48  24  48  24  24  48  48  48  48  48  24  48  48  48  48  48  48  24  48  48  48  48  24  48  48  48  48  48  48  48  24  48  48  48  48  48  24  24  48  48  48  48  48  48  48  24  48  24  48  48  48  48  48  48  48  24  48  48  48  24  48  24  48  48  48  24  48  24  24  48  48  48  24  24  24  48  48  24  48  48  48  24  48  24  48  48  48  48  48  48  48  48  48  48  24  24  48  48  24  48  48  48  48  48  48  48  24  24  48  48  48  48  24  24  48  48  48  48  48  48  24  48  48  48  48  48  48  48  48  48  24  48  48  48  24  48  48  48  48  48  24  48  48  48  48  24  48  48  48  48  24  48  48  48  48  48  48  48  48  24  48  48  48  48  24  48  24  48  48  48  24  24  48  48  48  48  48  48  48  48  48  24  48  48  48  48  24  48  48  48  48  48  48  48  48  24  48  48  24  48  48  48  48  48  48  48  48  48  48  48  48  48  48  48  24  48  48  48  48  48  48  48  48  48  24  48  48  48  48  48  24  24  24  48  48  48  24  48  24  48  24  48  48  48  24  48  48  48  48  48  48  48  48  48  48  24  24  24  24  48  24  48  48  24  48  48  48  48  48  48  48  24  48  24  24  48  48  24  24  48  48  48  48  48  48  48

************************************************************************
